# Objective value = 7385.03
I_0_0 2666
I_0_1 3.3369999999999995e+03
I_0_2 2844
I_0_3 3.8870000000000005e+03
I_1_0 38
I_1_1 19
I_1_2 38
I_1_3 19
I_2_0 74
I_2_1 37
I_2_2 74
I_2_3 37
I_3_0 158
I_3_1 1.5800000000000011e+02
I_3_2 7.8999999999999915e+01
I_3_3 -8.5265128291212022e-14
I_4_0 88
I_4_1 44
I_4_2 8.7999999999999986e+01
I_4_3 4.3999999999999986e+01
I_5_0 120
I_5_1 6.0000000000000050e+01
I_5_2 1.2000000000000013e+02
I_5_3 6.0000000000000128e+01
I_6_0 28
I_6_1 1.4000000000000011e+01
I_6_2 2.7999999999999993e+01
I_6_3 1.3999999999999991e+01
I_7_0 21
I_7_1 0
I_7_2 21
I_7_3 0
I_8_0 198
I_8_1 198
I_8_2 99
I_8_3 0
I_9_0 76
I_9_1 4.9044102112816290e-14
I_9_2 7.6000000000000028e+01
I_9_3 4.9044102112816290e-14
I_10_0 84
I_10_1 0
I_10_2 84
I_10_3 0
I_11_0 168
I_11_1 84
I_11_2 168
I_11_3 84
I_12_0 62
I_12_1 3.1000000000000025e+01
I_12_2 6.1999999999999986e+01
I_12_3 3.0999999999999979e+01
I_13_0 32
I_13_1 1.6000000000000018e+01
I_13_2 3.2000000000000014e+01
I_13_3 16
I_14_0 77
I_14_1 5.5566662382489085e-14
I_14_2 7.6999999999999986e+01
I_14_3 5.5566662382489085e-14
I_15_0 33
I_15_1 33
I_15_2 3.2999999999999972e+01
I_15_3 -6.4115379672102790e-15
I_16_0 110
I_16_1 5.5000000000000057e+01
I_16_2 110
I_16_3 55
I_17_0 11
I_17_1 7.93809462606987e-15
I_17_2 1.1000000000000005e+01
I_17_3 -6.29704621779581e-15
I_18_0 84
I_18_1 4.2000000000000014e+01
I_18_2 8.4000000000000014e+01
I_18_3 4.2000000000000185e+01
I_19_0 92
I_19_1 92
I_19_2 9.1999999999999872e+01
I_19_3 -3.0003777240494856e-14
I_20_0 69
I_20_1 69
I_20_2 6.8999999999999943e+01
I_20_3 -1.2448375663609568e-14
q_1_0 0
q_1_1 38
q_1_2 0
q_2_0 0
q_2_1 74
q_2_2 0
q_3_0 79.0000000000001
q_3_1 -1.7053025658242404e-13
q_3_2 0
q_4_0 0
q_4_1 8.7999999999999986e+01
q_4_2 0
q_5_0 4.6629367034256575e-14
q_5_1 1.2000000000000007e+02
q_5_2 3.5527136788005009e-15
q_6_0 1.0200174038743626e-14
q_6_1 2.7999999999999979e+01
q_6_2 0
q_7_0 0
q_7_1 42
q_7_2 0
q_8_0 99
q_8_1 0
q_8_2 0
q_9_0 4.9044102112816290e-14
q_9_1 152
q_9_2 2.0622392682412283e-14
q_10_0 0
q_10_1 168
q_10_2 0
q_11_0 0
q_11_1 1.6799999999999997e+02
q_11_2 1.7763568394002505e-15
q_12_0 2.4091839634365897e-14
q_12_1 6.1999999999999943e+01
q_12_2 -3.5527136788005009e-15
q_13_0 1.7541523789077473e-14
q_13_1 32
q_13_2 -1.4654943925052066e-14
q_14_0 5.5566662382489085e-14
q_14_1 1.5399999999999994e+02
q_14_2 6.9777517097691089e-14
q_15_0 33
q_15_1 3.2999999999999972e+01
q_15_2 2.2010171463193728e-14
q_16_0 5.6100957213089941e-14
q_16_1 1.0999999999999994e+02
q_16_2 0
q_17_0 7.93809462606987e-15
q_17_1 22
q_17_2 -1.1626116735996561e-14
q_18_0 1.5008827514151335e-14
q_18_1 84
q_18_2 1.6386891843467311e-13
q_19_0 92
q_19_1 9.1999999999999872e+01
q_19_2 9.7893915196323178e-14
q_20_0 69
q_20_1 6.8999999999999943e+01
q_20_2 4.4395043197198447e-14
y_0_0 1
y_0_1 1
y_0_2 0
y_1_0 0
y_1_1 1
y_1_2 0
y_2_0 0
y_2_1 1
y_2_2 0
y_3_0 1.0000000000000013e+00
y_3_1 -1.0824674490095276e-15
y_3_2 0
y_4_0 0
y_4_1 1
y_4_2 0
y_5_0 7.7715611723760958e-16
y_5_1 1
y_5_2 0
y_6_0 7.28583859910259e-16
y_6_1 9.9999999999999933e-01
y_6_2 0
y_7_0 0
y_7_1 1
y_7_2 0
y_8_0 1
y_8_1 0
y_8_2 0
y_9_0 6.4531713306337224e-16
y_9_1 1.0000000000000004e+00
y_9_2 6.4531713306337224e-16
y_10_0 0
y_10_1 1
y_10_2 0
y_11_0 0
y_11_1 9.9999999999999989e-01
y_11_2 1.3877787807814457e-17
y_12_0 7.7715611723760958e-16
y_12_1 1
y_12_2 0
y_13_0 1.0963452368173421e-15
y_13_1 1.0000000000000011e+00
y_13_2 -2.8102520310824275e-16
y_14_0 7.2164496600635175e-16
y_14_1 9.9999999999999978e-01
y_14_2 7.2164496600635175e-16
y_15_0 1
y_15_1 9.9999999999999911e-01
y_15_2 -1.9428902930940239e-16
y_16_0 1.0200174038743626e-15
y_16_1 1
y_16_2 0
y_17_0 7.2164496600635175e-16
y_17_1 1.0000000000000004e+00
y_17_2 -5.7245874707234634e-16
y_18_0 3.5735303605122226e-16
y_18_1 1
y_18_2 1.2975731600306517e-15
y_19_0 1
y_19_1 9.9999999999999856e-01
y_19_2 -3.2612801348363973e-16
y_20_0 1
y_20_1 9.9999999999999911e-01
y_20_2 -1.8041124150158794e-16
x_0_1_0 0
x_0_1_1 0
x_0_1_2 0
x_0_2_0 0
x_0_2_1 0
x_0_2_2 0
x_0_3_0 0
x_0_3_1 0
x_0_3_2 0
x_0_4_0 0
x_0_4_1 0
x_0_4_2 0
x_0_5_0 0
x_0_5_1 0
x_0_5_2 0
x_0_6_0 0
x_0_6_1 0
x_0_6_2 0
x_0_7_0 0
x_0_7_1 0
x_0_7_2 0
x_0_8_0 0
x_0_8_1 0
x_0_8_2 0
x_0_9_0 0
x_0_9_1 0
x_0_9_2 0
x_0_10_0 0
x_0_10_1 5.5511151231257827e-17
x_0_10_2 0
x_0_11_0 0
x_0_11_1 0
x_0_11_2 0
x_0_12_0 0
x_0_12_1 0
x_0_12_2 0
x_0_13_0 0
x_0_13_1 0
x_0_13_2 0
x_0_14_0 0
x_0_14_1 6.8695049648681561e-16
x_0_14_2 0
x_0_15_0 1.0000000000000016e+00
x_0_15_1 0
x_0_15_2 0
x_0_16_0 2.0400348077487251e-15
x_0_16_1 9.9999999999999911e-01
x_0_16_2 0
x_0_17_0 0
x_0_17_1 0
x_0_17_2 0
x_0_18_0 0
x_0_18_1 0
x_0_18_2 0
x_0_19_0 -1.8457457784393227e-15
x_0_19_1 0
x_0_19_2 0
x_0_20_0 9.9999999999999833e-01
x_0_20_1 9.9999999999999967e-01
x_0_20_2 0
x_1_2_0 0
x_1_2_1 0
x_1_2_2 0
x_1_3_0 0
x_1_3_1 0
x_1_3_2 0
x_1_4_0 0
x_1_4_1 0
x_1_4_2 0
x_1_5_0 0
x_1_5_1 0
x_1_5_2 0
x_1_6_0 0
x_1_6_1 9.9999999999999933e-01
x_1_6_2 0
x_1_7_0 0
x_1_7_1 0
x_1_7_2 0
x_1_8_0 0
x_1_8_1 0
x_1_8_2 0
x_1_9_0 0
x_1_9_1 0
x_1_9_2 0
x_1_10_0 0
x_1_10_1 0
x_1_10_2 0
x_1_11_0 0
x_1_11_1 1.0000000000000018e+00
x_1_11_2 0
x_1_12_0 0
x_1_12_1 0
x_1_12_2 0
x_1_13_0 0
x_1_13_1 -1.1241008124329710e-15
x_1_13_2 0
x_1_14_0 0
x_1_14_1 0
x_1_14_2 0
x_1_15_0 0
x_1_15_1 0
x_1_15_2 0
x_1_16_0 0
x_1_16_1 0
x_1_16_2 0
x_1_17_0 0
x_1_17_1 0
x_1_17_2 0
x_1_18_0 0
x_1_18_1 0
x_1_18_2 0
x_1_19_0 0
x_1_19_1 0
x_1_19_2 0
x_1_20_0 0
x_1_20_1 0
x_1_20_2 0
x_2_3_0 0
x_2_3_1 0
x_2_3_2 0
x_2_4_0 0
x_2_4_1 5.5511151231257827e-17
x_2_4_2 0
x_2_5_0 0
x_2_5_1 0
x_2_5_2 0
x_2_6_0 0
x_2_6_1 0
x_2_6_2 0
x_2_7_0 0
x_2_7_1 1
x_2_7_2 0
x_2_8_0 0
x_2_8_1 0
x_2_8_2 0
x_2_9_0 0
x_2_9_1 0
x_2_9_2 0
x_2_10_0 0
x_2_10_1 1
x_2_10_2 0
x_2_11_0 0
x_2_11_1 0
x_2_11_2 0
x_2_12_0 0
x_2_12_1 0
x_2_12_2 0
x_2_13_0 0
x_2_13_1 0
x_2_13_2 0
x_2_14_0 0
x_2_14_1 0
x_2_14_2 0
x_2_15_0 0
x_2_15_1 0
x_2_15_2 0
x_2_16_0 0
x_2_16_1 0
x_2_16_2 0
x_2_17_0 0
x_2_17_1 0
x_2_17_2 0
x_2_18_0 0
x_2_18_1 0
x_2_18_2 0
x_2_19_0 0
x_2_19_1 0
x_2_19_2 0
x_2_20_0 0
x_2_20_1 0
x_2_20_2 0
x_3_4_0 0
x_3_4_1 0
x_3_4_2 0
x_3_5_0 0
x_3_5_1 0
x_3_5_2 0
x_3_6_0 0
x_3_6_1 0
x_3_6_2 0
x_3_7_0 0
x_3_7_1 0
x_3_7_2 0
x_3_8_0 1.0000000000000016e+00
x_3_8_1 0
x_3_8_2 0
x_3_9_0 0
x_3_9_1 0
x_3_9_2 0
x_3_10_0 0
x_3_10_1 0
x_3_10_2 0
x_3_11_0 0
x_3_11_1 -2.1649348980190553e-15
x_3_11_2 0
x_3_12_0 0
x_3_12_1 0
x_3_12_2 0
x_3_13_0 1.0963452368173421e-15
x_3_13_1 0
x_3_13_2 0
x_3_14_0 0
x_3_14_1 0
x_3_14_2 0
x_3_15_0 0
x_3_15_1 0
x_3_15_2 0
x_3_16_0 0
x_3_16_1 0
x_3_16_2 0
x_3_17_0 0
x_3_17_1 0
x_3_17_2 0
x_3_18_0 0
x_3_18_1 0
x_3_18_2 0
x_3_19_0 1.0000000000000002e+00
x_3_19_1 0
x_3_19_2 0
x_3_20_0 0
x_3_20_1 0
x_3_20_2 0
x_4_5_0 0
x_4_5_1 0
x_4_5_2 0
x_4_6_0 0
x_4_6_1 0
x_4_6_2 0
x_4_7_0 0
x_4_7_1 1
x_4_7_2 0
x_4_8_0 0
x_4_8_1 0
x_4_8_2 0
x_4_9_0 0
x_4_9_1 0
x_4_9_2 0
x_4_10_0 0
x_4_10_1 0
x_4_10_2 0
x_4_11_0 0
x_4_11_1 0
x_4_11_2 0
x_4_12_0 0
x_4_12_1 1
x_4_12_2 0
x_4_13_0 0
x_4_13_1 0
x_4_13_2 0
x_4_14_0 0
x_4_14_1 0
x_4_14_2 0
x_4_15_0 0
x_4_15_1 0
x_4_15_2 0
x_4_16_0 0
x_4_16_1 0
x_4_16_2 0
x_4_17_0 0
x_4_17_1 0
x_4_17_2 0
x_4_18_0 0
x_4_18_1 0
x_4_18_2 0
x_4_19_0 0
x_4_19_1 0
x_4_19_2 0
x_4_20_0 0
x_4_20_1 0
x_4_20_2 0
x_5_6_0 0
x_5_6_1 0
x_5_6_2 0
x_5_7_0 0
x_5_7_1 0
x_5_7_2 0
x_5_8_0 0
x_5_8_1 0
x_5_8_2 0
x_5_9_0 7.7715611723760958e-16
x_5_9_1 0
x_5_9_2 8.3266726846886741e-17
x_5_10_0 0
x_5_10_1 0
x_5_10_2 0
x_5_11_0 0
x_5_11_1 0
x_5_11_2 0
x_5_12_0 7.7715611723760958e-16
x_5_12_1 1
x_5_12_2 0
x_5_13_0 0
x_5_13_1 0
x_5_13_2 0
x_5_14_0 0
x_5_14_1 1
x_5_14_2 1.3877787807814457e-16
x_5_15_0 0
x_5_15_1 0
x_5_15_2 0
x_5_16_0 0
x_5_16_1 0
x_5_16_2 0
x_5_17_0 0
x_5_17_1 0
x_5_17_2 0
x_5_18_0 0
x_5_18_1 0
x_5_18_2 0
x_5_19_0 0
x_5_19_1 0
x_5_19_2 0
x_5_20_0 0
x_5_20_1 0
x_5_20_2 0
x_6_7_0 0
x_6_7_1 0
x_6_7_2 0
x_6_8_0 0
x_6_8_1 0
x_6_8_2 0
x_6_9_0 0
x_6_9_1 8.6042284408449632e-16
x_6_9_2 0
x_6_10_0 0
x_6_10_1 0
x_6_10_2 0
x_6_11_0 0
x_6_11_1 0
x_6_11_2 0
x_6_12_0 0
x_6_12_1 0
x_6_12_2 0
x_6_13_0 7.4940054162198066e-16
x_6_13_1 0
x_6_13_2 0
x_6_14_0 0
x_6_14_1 0
x_6_14_2 0
x_6_15_0 0
x_6_15_1 0
x_6_15_2 0
x_6_16_0 0
x_6_16_1 0
x_6_16_2 0
x_6_17_0 7.2164496600635175e-16
x_6_17_1 0
x_6_17_2 0
x_6_18_0 0
x_6_18_1 9.9999999999999944e-01
x_6_18_2 0
x_6_19_0 0
x_6_19_1 0
x_6_19_2 0
x_6_20_0 0
x_6_20_1 0
x_6_20_2 0
x_7_8_0 0
x_7_8_1 0
x_7_8_2 0
x_7_9_0 0
x_7_9_1 0
x_7_9_2 0
x_7_10_0 0
x_7_10_1 0
x_7_10_2 0
x_7_11_0 0
x_7_11_1 0
x_7_11_2 0
x_7_12_0 0
x_7_12_1 -6.6613381477509392e-16
x_7_12_2 0
x_7_13_0 0
x_7_13_1 0
x_7_13_2 0
x_7_14_0 0
x_7_14_1 0
x_7_14_2 0
x_7_15_0 0
x_7_15_1 0
x_7_15_2 0
x_7_16_0 0
x_7_16_1 7.7715611723760958e-16
x_7_16_2 0
x_7_17_0 0
x_7_17_1 0
x_7_17_2 0
x_7_18_0 0
x_7_18_1 0
x_7_18_2 0
x_7_19_0 0
x_7_19_1 0
x_7_19_2 0
x_7_20_0 0
x_7_20_1 0
x_7_20_2 0
x_8_9_0 0
x_8_9_1 0
x_8_9_2 0
x_8_10_0 0
x_8_10_1 0
x_8_10_2 0
x_8_11_0 0
x_8_11_1 0
x_8_11_2 0
x_8_12_0 0
x_8_12_1 0
x_8_12_2 0
x_8_13_0 0
x_8_13_1 0
x_8_13_2 0
x_8_14_0 0
x_8_14_1 0
x_8_14_2 0
x_8_15_0 9.9999999999999845e-01
x_8_15_1 0
x_8_15_2 0
x_8_16_0 0
x_8_16_1 0
x_8_16_2 0
x_8_17_0 0
x_8_17_1 0
x_8_17_2 0
x_8_18_0 0
x_8_18_1 0
x_8_18_2 0
x_8_19_0 0
x_8_19_1 0
x_8_19_2 0
x_8_20_0 0
x_8_20_1 0
x_8_20_2 0
x_9_10_0 0
x_9_10_1 0
x_9_10_2 0
x_9_11_0 0
x_9_11_1 0
x_9_11_2 0
x_9_12_0 0
x_9_12_1 0
x_9_12_2 0
x_9_13_0 0
x_9_13_1 0
x_9_13_2 0
x_9_14_0 0
x_9_14_1 1.0000000000000004e+00
x_9_14_2 0
x_9_15_0 0
x_9_15_1 0
x_9_15_2 0
x_9_16_0 0
x_9_16_1 0
x_9_16_2 0
x_9_17_0 0
x_9_17_1 0
x_9_17_2 0
x_9_18_0 6.1062266354383610e-16
x_9_18_1 9.9999999999999956e-01
x_9_18_2 1.1969591984239969e-15
x_9_19_0 0
x_9_19_1 0
x_9_19_2 0
x_9_20_0 0
x_9_20_1 0
x_9_20_2 0
x_10_11_0 0
x_10_11_1 0
x_10_11_2 0
x_10_12_0 0
x_10_12_1 0
x_10_12_2 0
x_10_13_0 0
x_10_13_1 0
x_10_13_2 0
x_10_14_0 0
x_10_14_1 0
x_10_14_2 0
x_10_15_0 0
x_10_15_1 0
x_10_15_2 0
x_10_16_0 0
x_10_16_1 1
x_10_16_2 0
x_10_17_0 0
x_10_17_1 0
x_10_17_2 0
x_10_18_0 0
x_10_18_1 0
x_10_18_2 0
x_10_19_0 0
x_10_19_1 0
x_10_19_2 0
x_10_20_0 0
x_10_20_1 0
x_10_20_2 0
x_11_12_0 0
x_11_12_1 0
x_11_12_2 0
x_11_13_0 0
x_11_13_1 1.0000000000000002e+00
x_11_13_2 2.7755575615628914e-17
x_11_14_0 0
x_11_14_1 0
x_11_14_2 0
x_11_15_0 0
x_11_15_1 0
x_11_15_2 0
x_11_16_0 0
x_11_16_1 0
x_11_16_2 0
x_11_17_0 0
x_11_17_1 0
x_11_17_2 0
x_11_18_0 0
x_11_18_1 0
x_11_18_2 0
x_11_19_0 0
x_11_19_1 0
x_11_19_2 0
x_11_20_0 0
x_11_20_1 0
x_11_20_2 0
x_12_13_0 0
x_12_13_1 0
x_12_13_2 0
x_12_14_0 7.7715611723760958e-16
x_12_14_1 0
x_12_14_2 0
x_12_15_0 0
x_12_15_1 0
x_12_15_2 0
x_12_16_0 0
x_12_16_1 0
x_12_16_2 0
x_12_17_0 0
x_12_17_1 0
x_12_17_2 0
x_12_18_0 0
x_12_18_1 0
x_12_18_2 0
x_12_19_0 0
x_12_19_1 0
x_12_19_2 0
x_12_20_0 0
x_12_20_1 0
x_12_20_2 0
x_13_14_0 0
x_13_14_1 0
x_13_14_2 0
x_13_15_0 0
x_13_15_1 0
x_13_15_2 0
x_13_16_0 0
x_13_16_1 0
x_13_16_2 0
x_13_17_0 -3.9204750557075840e-16
x_13_17_1 1.0000000000000027e+00
x_13_17_2 -5.9674487573602164e-16
x_13_18_0 7.4940054162198066e-16
x_13_18_1 0
x_13_18_2 0
x_13_19_0 -5.5511151231257827e-17
x_13_19_1 0
x_13_19_2 0
x_13_20_0 0
x_13_20_1 0
x_13_20_2 0
x_14_15_0 0
x_14_15_1 0
x_14_15_2 0
x_14_16_0 0
x_14_16_1 0
x_14_16_2 0
x_14_17_0 0
x_14_17_1 0
x_14_17_2 0
x_14_18_0 6.9388939039072284e-16
x_14_18_1 0
x_14_18_2 1.27675647831893e-15
x_14_19_0 0
x_14_19_1 0
x_14_19_2 0
x_14_20_0 0
x_14_20_1 -7.4246164771807344e-16
x_14_20_2 0
x_15_16_0 0
x_15_16_1 0
x_15_16_2 0
x_15_17_0 0
x_15_17_1 0
x_15_17_2 0
x_15_18_0 0
x_15_18_1 0
x_15_18_2 0
x_15_19_0 0
x_15_19_1 9.9999999999999933e-01
x_15_19_2 -1.8041124150158794e-16
x_15_20_0 0
x_15_20_1 9.9999999999999922e-01
x_15_20_2 -1.8041124150158794e-16
x_16_17_0 0
x_16_17_1 0
x_16_17_2 0
x_16_18_0 0
x_16_18_1 0
x_16_18_2 0
x_16_19_0 0
x_16_19_1 0
x_16_19_2 0
x_16_20_0 0
x_16_20_1 0
x_16_20_2 0
x_17_18_0 0
x_17_18_1 0
x_17_18_2 0
x_17_19_0 1.1657341758564144e-15
x_17_19_1 0.999999999999998
x_17_19_2 -2.9837243786801082e-16
x_17_20_0 0
x_17_20_1 0
x_17_20_2 0
x_18_19_0 -1.3461454173580023e-15
x_18_19_1 0
x_18_19_2 0
x_18_20_0 0
x_18_20_1 0
x_18_20_2 0
x_19_20_0 1.0000000000000020e+00
x_19_20_1 0
x_19_20_2 -2.2204460492503131e-16
